
Gurobi 9.1.1 (win64) logging started Sun Mar 14 12:31:22 2021

Changed value of parameter LogFile to ../results/logs/log_samuel_kroger_2021_03_14_12_31_22.csv_2_2.log
   Prev:   Default: 
Gurobi Optimizer version 9.1.1 build v9.1.1rc0 (win64)
Thread count: 6 physical cores, 12 logical processors, using up to 12 threads
Optimize a model with 68 rows, 68 columns and 446 nonzeros
Model fingerprint: 0xfbb6af82
Variable types: 0 continuous, 68 integer (68 binary)
Coefficient statistics:
  Matrix range     [1e+00, 2e+00]
  Objective range  [1e+00, 1e+00]
  Bounds range     [1e+00, 1e+00]
  RHS range        [1e+00, 2e+00]
Found heuristic solution: objective 2.0000000
Found heuristic solution: objective 22.0000000
Presolve removed 1 rows and 1 columns
Presolve time: 0.00s
Presolved: 67 rows, 67 columns, 442 nonzeros
Variable types: 0 continuous, 67 integer (67 binary)

Root relaxation: objective 3.400000e+01, 0 iterations, 0.00 seconds

    Nodes    |    Current Node    |     Objective Bounds      |     Work
 Expl Unexpl |  Obj  Depth IntInf | Incumbent    BestBd   Gap | It/Node Time

*    0     0               0      34.0000000   34.00000  0.00%     -    0s

Explored 0 nodes (0 simplex iterations) in 0.01 seconds
Thread count was 12 (of 12 available processors)

Solution count 3: 34 22 2 

Optimal solution found (tolerance 1.00e-04)
Best objective 3.400000000000e+01, best bound 3.400000000000e+01, gap 0.0000%
